certificates/rado_a11_c62_N31.drat
6 -28 0
-6 -29 -31 0
6 -31 0
28 -30 -6 0
-8 -31 0
-6 -31 0
d -27 -6 -31 0
-31 0
-6 0
2 0
10 0
27 0
-28 0
24 0
8 0
-1 0
5 0
-12 0
-20 0
-9 0
-17 0
-3 0
-15 0
16 0
13 0
21 0
7 0
30 0
19 0
11 0
-23 0
-14 0
-22 0
-25 0
-4 0
-26 0
-18 0
0
